Problem:    
Rows:       25
Columns:    65 (65 integer, 65 binary)
Non-zeros:  287
Status:     INTEGER OPTIMAL
Objective:  score = 7850 (MAXimum)

   No.   Row name        Activity     Lower bound   Upper bound
------ ------------    ------------- ------------- -------------
     1 index_0                     4             0               
     2 index_1                     1             0               
     3 index_2                     2             0               
     4 index_3                     0             0               
     5 index_4                     0             0               
     6 index_5                     2             0               
     7 index_6                     1             0               
     8 index_7                     1             0               
     9 index_8                     0             0               
    10 index_9                     3             0               
    11 index_10                    1             0               
    12 index_11                    3             0               
    13 index_12                    1             0               
    14 index_13                    1             0               
    15 index_14                    1             0               
    16 index_15                    1             0               
    17 index_16                    1             0               
    18 index_17                    3             0               
    19 index_18                    0             0               
    20 index_19                    2             0               
    21 index_20                    2             0               
    22 index_21                    0             0               
    23 index_22                    3             0               
    24 index_23                    2             0               
    25 length                      5                           5 

   No. Column name       Activity     Lower bound   Upper bound
------ ------------    ------------- ------------- -------------
     1 c0           *              1             0             1 
     2 c1           *              1             0             1 
     3 c2           *              1             0             1 
     4 c3           *              1             0             1 
     5 c4           *              1             0             1 
     6 c5           *              1             0             1 
     7 c6           *              1             0             1 
     8 c7           *              1             0             1 
     9 c8           *              1             0             1 
    10 c9           *              1             0             1 
    11 c10          *              1             0             1 
    12 c11          *              1             0             1 
    13 c12          *              1             0             1 
    14 c13          *              1             0             1 
    15 c14          *              1             0             1 
    16 c15          *              1             0             1 
    17 c16          *              1             0             1 
    18 c17          *              1             0             1 
    19 c18          *              1             0             1 
    20 c19          *              1             0             1 
    21 c20          *              1             0             1 
    22 c21          *              1             0             1 
    23 c22          *              1             0             1 
    24 c23          *              1             0             1 
    25 s0           *              1             0             1 
    26 s1           *              0             0             1 
    27 s2           *              0             0             1 
    28 s3           *              0             0             1 
    29 s4           *              0             0             1 
    30 s5           *              0             0             1 
    31 s6           *              0             0             1 
    32 s7           *              0             0             1 
    33 s8           *              0             0             1 
    34 s9           *              0             0             1 
    35 s10          *              0             0             1 
    36 s11          *              1             0             1 
    37 s12          *              0             0             1 
    38 s13          *              0             0             1 
    39 s14          *              0             0             1 
    40 s15          *              1             0             1 
    41 s16          *              0             0             1 
    42 s17          *              0             0             1 
    43 s18          *              0             0             1 
    44 s19          *              0             0             1 
    45 s20          *              0             0             1 
    46 s21          *              0             0             1 
    47 s22          *              0             0             1 
    48 s23          *              0             0             1 
    49 s24          *              0             0             1 
    50 s25          *              1             0             1 
    51 s26          *              0             0             1 
    52 s27          *              0             0             1 
    53 s28          *              0             0             1 
    54 s29          *              0             0             1 
    55 s30          *              0             0             1 
    56 s31          *              1             0             1 
    57 s32          *              0             0             1 
    58 s33          *              0             0             1 
    59 s34          *              0             0             1 
    60 s35          *              0             0             1 
    61 s36          *              0             0             1 
    62 s37          *              0             0             1 
    63 s38          *              0             0             1 
    64 s39          *              0             0             1 
    65 s40          *              0             0             1 

Integer feasibility conditions:

KKT.PE: max.abs.err = 0.00e+00 on row 0
        max.rel.err = 0.00e+00 on row 0
        High quality

KKT.PB: max.abs.err = 0.00e+00 on row 0
        max.rel.err = 0.00e+00 on row 0
        High quality

End of output
